p cnf 430 1488
-191 143 0
-191 127 0
-191 -72 0
-191 -173 0
-191 -90 0
191 -143 -127 72 173 90 0
-192 -33 0
-192 -52 0
-192 -138 0
-192 127 0
-192 -57 0
192 33 52 138 -127 57 0
-193 78 0
-193 87 0
-193 38 0
-193 48 0
-193 1 0
193 -78 -87 -38 -48 -1 0
-194 67 0
-194 85 0
-194 90 0
-194 -136 0
-194 133 0
194 -67 -85 -90 136 -133 0
-195 71 0
-195 172 0
-195 46 0
-195 -160 0
-195 -106 0
195 -71 -172 -46 160 106 0
191 192 193 194 195 0
-196 121 0
-196 -134 0
-196 -14 0
-196 22 0
-196 2 0
196 -121 134 14 -22 -2 0
-197 22 0
-197 -19 0
-197 -25 0
-197 -114 0
-197 14 0
197 -22 19 25 114 -14 0
-198 -83 0
-198 151 0
-198 -190 0
-198 7 0
-198 -16 0
198 83 -151 190 -7 16 0
-199 41 0
-199 -99 0
-199 122 0
-199 -167 0
-199 38 0
199 -41 99 -122 167 -38 0
-200 -130 0
-200 -59 0
-200 22 0
-200 -2 0
-200 -57 0
200 130 59 -22 2 57 0
196 197 198 199 200 0
-201 88 0
-201 -82 0
-201 -93 0
-201 -48 0
-201 56 0
201 -88 82 93 48 -56 0
-202 -179 0
-202 -157 0
-202 5 0
-202 149 0
-202 -1 0
202 179 157 -5 -149 1 0
-203 -178 0
-203 -72 0
-203 -73 0
-203 -55 0
-203 102 0
203 178 72 73 55 -102 0
-204 152 0
-204 -128 0
-204 177 0
-204 -48 0
-204 -25 0
204 -152 128 -177 48 25 0
-205 152 0
-205 -172 0
-205 178 0
-205 161 0
-205 33 0
205 -152 172 -178 -161 -33 0
201 202 203 204 205 0
-206 119 0
-206 162 0
-206 -5 0
-206 -90 0
-206 -4 0
206 -119 -162 5 90 4 0
-207 117 0
-207 -5 0
-207 -182 0
-207 43 0
-207 -111 0
207 -117 5 182 -43 111 0
-208 -91 0
-208 21 0
-208 138 0
-208 -63 0
-208 -181 0
208 91 -21 -138 63 181 0
-209 65 0
-209 94 0
-209 -73 0
-209 189 0
-209 -117 0
209 -65 -94 73 -189 117 0
-210 111 0
-210 -24 0
-210 -151 0
-210 22 0
-210 -166 0
210 -111 24 151 -22 166 0
206 207 208 209 210 0
-211 -32 0
-211 -175 0
-211 174 0
-211 44 0
-211 -116 0
211 32 175 -174 -44 116 0
-212 -11 0
-212 -157 0
-212 61 0
-212 2 0
-212 7 0
212 11 157 -61 -2 -7 0
-213 106 0
-213 173 0
-213 48 0
-213 -56 0
-213 -18 0
213 -106 -173 -48 56 18 0
-214 31 0
-214 148 0
-214 142 0
-214 144 0
-214 -77 0
214 -31 -148 -142 -144 77 0
-215 84 0
-215 -38 0
-215 -85 0
-215 -154 0
-215 26 0
215 -84 38 85 154 -26 0
211 212 213 214 215 0
-216 82 0
-216 187 0
-216 -33 0
-216 -133 0
-216 18 0
216 -82 -187 33 133 -18 0
-217 161 0
-217 -103 0
-217 49 0
-217 -170 0
-217 160 0
217 -161 103 -49 170 -160 0
-218 82 0
-218 -89 0
-218 139 0
-218 -157 0
-218 -177 0
218 -82 89 -139 157 177 0
-219 -16 0
-219 4 0
-219 -111 0
-219 69 0
-219 15 0
219 16 -4 111 -69 -15 0
-220 143 0
-220 -1 0
-220 -106 0
-220 -118 0
-220 -22 0
220 -143 1 106 118 22 0
216 217 218 219 220 0
-221 13 0
-221 175 0
-221 126 0
-221 97 0
-221 95 0
221 -13 -175 -126 -97 -95 0
-222 170 0
-222 -185 0
-222 86 0
-222 -100 0
-222 124 0
222 -170 185 -86 100 -124 0
-223 2 0
-223 148 0
-223 -6 0
-223 5 0
-223 -142 0
223 -2 -148 6 -5 142 0
-224 96 0
-224 -79 0
-224 100 0
-224 -164 0
-224 -101 0
224 -96 79 -100 164 101 0
-225 155 0
-225 -178 0
-225 110 0
-225 43 0
-225 90 0
225 -155 178 -110 -43 -90 0
221 222 223 224 225 0
-226 -149 0
-226 -153 0
-226 95 0
-226 -43 0
-226 158 0
226 149 153 -95 43 -158 0
-227 133 0
-227 -142 0
-227 166 0
-227 124 0
-227 -108 0
227 -133 142 -166 -124 108 0
-228 83 0
-228 -22 0
-228 -142 0
-228 21 0
-228 -71 0
228 -83 22 142 -21 71 0
-229 -27 0
-229 106 0
-229 92 0
-229 88 0
-229 47 0
229 27 -106 -92 -88 -47 0
-230 -151 0
-230 -91 0
-230 122 0
-230 -180 0
-230 12 0
230 151 91 -122 180 -12 0
226 227 228 229 230 0
-231 190 0
-231 66 0
-231 3 0
-231 -52 0
-231 140 0
231 -190 -66 -3 52 -140 0
-232 22 0
-232 21 0
-232 -157 0
-232 -31 0
-232 -134 0
232 -22 -21 157 31 134 0
-233 -109 0
-233 169 0
-233 -146 0
-233 96 0
-233 130 0
233 109 -169 146 -96 -130 0
-234 44 0
-234 -102 0
-234 -26 0
-234 -91 0
-234 -110 0
234 -44 102 26 91 110 0
-235 -153 0
-235 -33 0
-235 -173 0
-235 14 0
-235 84 0
235 153 33 173 -14 -84 0
231 232 233 234 235 0
-236 -57 0
-236 -16 0
-236 3 0
-236 139 0
-236 -176 0
236 57 16 -3 -139 176 0
-237 153 0
-237 138 0
-237 126 0
-237 -181 0
-237 -2 0
237 -153 -138 -126 181 2 0
-238 35 0
-238 22 0
-238 -44 0
-238 -47 0
-238 9 0
238 -35 -22 44 47 -9 0
-239 -123 0
-239 41 0
-239 155 0
-239 -158 0
-239 -5 0
239 123 -41 -155 158 5 0
-240 57 0
-240 -173 0
-240 -92 0
-240 158 0
-240 -19 0
240 -57 173 92 -158 19 0
236 237 238 239 240 0
-241 -172 0
-241 133 0
-241 -49 0
-241 -175 0
-241 -71 0
241 172 -133 49 175 71 0
-242 20 0
-242 71 0
-242 55 0
-242 66 0
-242 -109 0
242 -20 -71 -55 -66 109 0
-243 -104 0
-243 -179 0
-243 70 0
-243 174 0
-243 8 0
243 104 179 -70 -174 -8 0
-244 -100 0
-244 24 0
-244 19 0
-244 75 0
-244 -140 0
244 100 -24 -19 -75 140 0
-245 117 0
-245 26 0
-245 113 0
-245 107 0
-245 -133 0
245 -117 -26 -113 -107 133 0
241 242 243 244 245 0
-246 -184 0
-246 10 0
-246 -39 0
-246 131 0
-246 -132 0
246 184 -10 39 -131 132 0
-247 114 0
-247 15 0
-247 118 0
-247 177 0
-247 70 0
247 -114 -15 -118 -177 -70 0
-248 108 0
-248 152 0
-248 -35 0
-248 50 0
-248 -28 0
248 -108 -152 35 -50 28 0
-249 -69 0
-249 118 0
-249 -168 0
-249 91 0
-249 144 0
249 69 -118 168 -91 -144 0
-250 101 0
-250 33 0
-250 147 0
-250 78 0
-250 -165 0
250 -101 -33 -147 -78 165 0
246 247 248 249 250 0
-251 22 0
-251 26 0
-251 -139 0
-251 -113 0
-251 109 0
251 -22 -26 139 113 -109 0
-252 123 0
-252 -116 0
-252 158 0
-252 33 0
-252 -169 0
252 -123 116 -158 -33 169 0
-253 -84 0
-253 37 0
-253 -11 0
-253 20 0
-253 -124 0
253 84 -37 11 -20 124 0
-254 35 0
-254 -172 0
-254 -107 0
-254 11 0
-254 -80 0
254 -35 172 107 -11 80 0
-255 74 0
-255 4 0
-255 106 0
-255 -144 0
-255 -47 0
255 -74 -4 -106 144 47 0
251 252 253 254 255 0
-256 -21 0
-256 109 0
-256 138 0
-256 69 0
-256 136 0
256 21 -109 -138 -69 -136 0
-257 105 0
-257 -101 0
-257 -184 0
-257 21 0
-257 -124 0
257 -105 101 184 -21 124 0
-258 159 0
-258 113 0
-258 -149 0
-258 162 0
-258 152 0
258 -159 -113 149 -162 -152 0
-259 103 0
-259 -81 0
-259 -78 0
-259 -85 0
-259 60 0
259 -103 81 78 85 -60 0
-260 108 0
-260 -97 0
-260 154 0
-260 -17 0
-260 121 0
260 -108 97 -154 17 -121 0
256 257 258 259 260 0
-261 60 0
-261 -72 0
-261 133 0
-261 -54 0
-261 157 0
261 -60 72 -133 54 -157 0
-262 -83 0
-262 -80 0
-262 18 0
-262 161 0
-262 75 0
262 83 80 -18 -161 -75 0
-263 59 0
-263 -75 0
-263 -189 0
-263 -139 0
-263 -21 0
263 -59 75 189 139 21 0
-264 67 0
-264 140 0
-264 -177 0
-264 160 0
-264 184 0
264 -67 -140 177 -160 -184 0
-265 17 0
-265 79 0
-265 -45 0
-265 57 0
-265 -70 0
265 -17 -79 45 -57 70 0
261 262 263 264 265 0
-266 11 0
-266 105 0
-266 147 0
-266 -70 0
-266 -85 0
266 -11 -105 -147 70 85 0
-267 154 0
-267 -102 0
-267 81 0
-267 71 0
-267 -89 0
267 -154 102 -81 -71 89 0
-268 73 0
-268 -134 0
-268 -61 0
-268 -6 0
-268 -146 0
268 -73 134 61 6 146 0
-269 -130 0
-269 45 0
-269 -143 0
-269 29 0
-269 109 0
269 130 -45 143 -29 -109 0
-270 53 0
-270 46 0
-270 -118 0
-270 -175 0
-270 68 0
270 -53 -46 118 175 -68 0
266 267 268 269 270 0
-271 105 0
-271 -161 0
-271 66 0
-271 -103 0
-271 -188 0
271 -105 161 -66 103 188 0
-272 -105 0
-272 96 0
-272 42 0
-272 73 0
-272 10 0
272 105 -96 -42 -73 -10 0
-273 -190 0
-273 54 0
-273 -40 0
-273 85 0
-273 82 0
273 190 -54 40 -85 -82 0
-274 131 0
-274 147 0
-274 -183 0
-274 90 0
-274 -11 0
274 -131 -147 183 -90 11 0
-275 68 0
-275 72 0
-275 -58 0
-275 119 0
-275 32 0
275 -68 -72 58 -119 -32 0
271 272 273 274 275 0
-276 -45 0
-276 -116 0
-276 -73 0
-276 126 0
-276 -4 0
276 45 116 73 -126 4 0
-277 -6 0
-277 92 0
-277 114 0
-277 -42 0
-277 153 0
277 6 -92 -114 42 -153 0
-278 156 0
-278 -8 0
-278 -48 0
-278 188 0
-278 -111 0
278 -156 8 48 -188 111 0
-279 -162 0
-279 68 0
-279 112 0
-279 6 0
-279 -87 0
279 162 -68 -112 -6 87 0
-280 -71 0
-280 -164 0
-280 127 0
-280 112 0
-280 32 0
280 71 164 -127 -112 -32 0
276 277 278 279 280 0
-281 123 0
-281 -87 0
-281 -161 0
-281 175 0
-281 -14 0
281 -123 87 161 -175 14 0
-282 -20 0
-282 -50 0
-282 124 0
-282 -159 0
-282 -51 0
282 20 50 -124 159 51 0
-283 73 0
-283 -162 0
-283 -1 0
-283 -72 0
-283 -140 0
283 -73 162 1 72 140 0
-284 -8 0
-284 -120 0
-284 -50 0
-284 -187 0
-284 -153 0
284 8 120 50 187 153 0
-285 -64 0
-285 -44 0
-285 182 0
-285 10 0
-285 -155 0
285 64 44 -182 -10 155 0
281 282 283 284 285 0
-286 -69 0
-286 84 0
-286 65 0
-286 110 0
-286 -155 0
286 69 -84 -65 -110 155 0
-287 -123 0
-287 167 0
-287 31 0
-287 92 0
-287 175 0
287 123 -167 -31 -92 -175 0
-288 104 0
-288 -57 0
-288 -114 0
-288 21 0
-288 -58 0
288 -104 57 114 -21 58 0
-289 -29 0
-289 173 0
-289 -48 0
-289 89 0
-289 -51 0
289 29 -173 48 -89 51 0
-290 -189 0
-290 -49 0
-290 -150 0
-290 141 0
-290 -57 0
290 189 49 150 -141 57 0
286 287 288 289 290 0
-291 65 0
-291 -24 0
-291 62 0
-291 -74 0
-291 28 0
291 -65 24 -62 74 -28 0
-292 128 0
-292 -19 0
-292 14 0
-292 -3 0
-292 -131 0
292 -128 19 -14 3 131 0
-293 -155 0
-293 -129 0
-293 -97 0
-293 -106 0
-293 -11 0
293 155 129 97 106 11 0
-294 -146 0
-294 -35 0
-294 165 0
-294 -72 0
-294 -94 0
294 146 35 -165 72 94 0
-295 111 0
-295 17 0
-295 -145 0
-295 -25 0
-295 137 0
295 -111 -17 145 25 -137 0
291 292 293 294 295 0
-296 100 0
-296 -119 0
-296 -101 0
-296 78 0
-296 -75 0
296 -100 119 101 -78 75 0
-297 -61 0
-297 9 0
-297 -155 0
-297 -121 0
-297 152 0
297 61 -9 155 121 -152 0
-298 -186 0
-298 -86 0
-298 -180 0
-298 109 0
-298 -156 0
298 186 86 180 -109 156 0
-299 21 0
-299 -152 0
-299 -144 0
-299 178 0
-299 10 0
299 -21 152 144 -178 -10 0
-300 -64 0
-300 13 0
-300 -20 0
-300 -87 0
-300 48 0
300 64 -13 20 87 -48 0
296 297 298 299 300 0
-301 180 0
-301 -74 0
-301 -45 0
-301 39 0
-301 -62 0
301 -180 74 45 -39 62 0
-302 -183 0
-302 36 0
-302 92 0
-302 -4 0
-302 148 0
302 183 -36 -92 4 -148 0
-303 -80 0
-303 -148 0
-303 -45 0
-303 -93 0
-303 -179 0
303 80 148 45 93 179 0
-304 130 0
-304 -37 0
-304 101 0
-304 152 0
-304 181 0
304 -130 37 -101 -152 -181 0
-305 -147 0
-305 -131 0
-305 -92 0
-305 -155 0
-305 -95 0
305 147 131 92 155 95 0
301 302 303 304 305 0
-306 -13 0
-306 15 0
-306 -32 0
-306 -61 0
-306 -12 0
306 13 -15 32 61 12 0
-307 15 0
-307 -98 0
-307 86 0
-307 117 0
-307 124 0
307 -15 98 -86 -117 -124 0
-308 -62 0
-308 -63 0
-308 -13 0
-308 38 0
-308 -141 0
308 62 63 13 -38 141 0
-309 2 0
-309 -94 0
-309 -26 0
-309 -92 0
-309 112 0
309 -2 94 26 92 -112 0
-310 85 0
-310 -137 0
-310 145 0
-310 83 0
-310 -171 0
310 -85 137 -145 -83 171 0
306 307 308 309 310 0
-311 -112 0
-311 -90 0
-311 136 0
-311 -120 0
-311 -152 0
311 112 90 -136 120 152 0
-312 -85 0
-312 -127 0
-312 84 0
-312 76 0
-312 -60 0
312 85 127 -84 -76 60 0
-313 -49 0
-313 10 0
-313 71 0
-313 -188 0
-313 104 0
313 49 -10 -71 188 -104 0
-314 33 0
-314 -3 0
-314 -43 0
-314 120 0
-314 -129 0
314 -33 3 43 -120 129 0
-315 107 0
-315 -23 0
-315 -166 0
-315 -105 0
-315 181 0
315 -107 23 166 105 -181 0
311 312 313 314 315 0
-316 50 0
-316 54 0
-316 -131 0
-316 -18 0
-316 -182 0
316 -50 -54 131 18 182 0
-317 160 0
-317 17 0
-317 -102 0
-317 -168 0
-317 -55 0
317 -160 -17 102 168 55 0
-318 -169 0
-318 -152 0
-318 -90 0
-318 -35 0
-318 190 0
318 169 152 90 35 -190 0
-319 176 0
-319 -51 0
-319 131 0
-319 -168 0
-319 -115 0
319 -176 51 -131 168 115 0
-320 106 0
-320 -86 0
-320 7 0
-320 -58 0
-320 38 0
320 -106 86 -7 58 -38 0
316 317 318 319 320 0
-321 121 0
-321 -180 0
-321 140 0
-321 137 0
-321 -74 0
321 -121 180 -140 -137 74 0
-322 42 0
-322 -167 0
-322 -49 0
-322 -70 0
-322 -54 0
322 -42 167 49 70 54 0
-323 -100 0
-323 -42 0
-323 -187 0
-323 51 0
-323 2 0
323 100 42 187 -51 -2 0
-324 -29 0
-324 54 0
-324 70 0
-324 100 0
-324 -69 0
324 29 -54 -70 -100 69 0
-325 -170 0
-325 -45 0
-325 159 0
-325 -104 0
-325 49 0
325 170 45 -159 104 -49 0
321 322 323 324 325 0
-326 158 0
-326 68 0
-326 -164 0
-326 -162 0
-326 19 0
326 -158 -68 164 162 -19 0
-327 -131 0
-327 -183 0
-327 -17 0
-327 -75 0
-327 21 0
327 131 183 17 75 -21 0
-328 -90 0
-328 24 0
-328 49 0
-328 50 0
-328 176 0
328 90 -24 -49 -50 -176 0
-329 125 0
-329 -80 0
-329 84 0
-329 -100 0
-329 -1 0
329 -125 80 -84 100 1 0
-330 -138 0
-330 -186 0
-330 -106 0
-330 -72 0
-330 -178 0
330 138 186 106 72 178 0
326 327 328 329 330 0
-331 -73 0
-331 -169 0
-331 184 0
-331 -8 0
-331 -115 0
331 73 169 -184 8 115 0
-332 -68 0
-332 -44 0
-332 -86 0
-332 -185 0
-332 -17 0
332 68 44 86 185 17 0
-333 -135 0
-333 97 0
-333 23 0
-333 126 0
-333 -117 0
333 135 -97 -23 -126 117 0
-334 18 0
-334 -57 0
-334 -103 0
-334 43 0
-334 58 0
334 -18 57 103 -43 -58 0
-335 -43 0
-335 -1 0
-335 -178 0
-335 -148 0
-335 -62 0
335 43 1 178 148 62 0
331 332 333 334 335 0
-336 -115 0
-336 8 0
-336 20 0
-336 21 0
-336 165 0
336 115 -8 -20 -21 -165 0
-337 -76 0
-337 -98 0
-337 -190 0
-337 30 0
-337 135 0
337 76 98 190 -30 -135 0
-338 117 0
-338 -10 0
-338 150 0
-338 180 0
-338 -90 0
338 -117 10 -150 -180 90 0
-339 -81 0
-339 70 0
-339 -90 0
-339 71 0
-339 -183 0
339 81 -70 90 -71 183 0
-340 177 0
-340 -70 0
-340 106 0
-340 -49 0
-340 13 0
340 -177 70 -106 49 -13 0
336 337 338 339 340 0
-341 -141 0
-341 128 0
-341 5 0
-341 -39 0
-341 -188 0
341 141 -128 -5 39 188 0
-342 -145 0
-342 15 0
-342 159 0
-342 150 0
-342 40 0
342 145 -15 -159 -150 -40 0
-343 107 0
-343 -164 0
-343 -167 0
-343 -136 0
-343 -133 0
343 -107 164 167 136 133 0
-344 -175 0
-344 165 0
-344 -126 0
-344 141 0
-344 -65 0
344 175 -165 126 -141 65 0
-345 148 0
-345 -90 0
-345 111 0
-345 11 0
-345 94 0
345 -148 90 -111 -11 -94 0
341 342 343 344 345 0
-346 17 0
-346 145 0
-346 -176 0
-346 127 0
-346 158 0
346 -17 -145 176 -127 -158 0
-347 59 0
-347 -184 0
-347 -170 0
-347 -187 0
-347 87 0
347 -59 184 170 187 -87 0
-348 103 0
-348 60 0
-348 -46 0
-348 -122 0
-348 66 0
348 -103 -60 46 122 -66 0
-349 95 0
-349 121 0
-349 -182 0
-349 153 0
-349 36 0
349 -95 -121 182 -153 -36 0
-350 107 0
-350 -183 0
-350 -56 0
-350 47 0
-350 -189 0
350 -107 183 56 -47 189 0
346 347 348 349 350 0
-351 142 0
-351 59 0
-351 -60 0
-351 -179 0
-351 57 0
351 -142 -59 60 179 -57 0
-352 -71 0
-352 178 0
-352 160 0
-352 -14 0
-352 137 0
352 71 -178 -160 14 -137 0
-353 96 0
-353 -23 0
-353 -180 0
-353 12 0
-353 -18 0
353 -96 23 180 -12 18 0
-354 44 0
-354 100 0
-354 152 0
-354 78 0
-354 99 0
354 -44 -100 -152 -78 -99 0
-355 128 0
-355 -35 0
-355 -39 0
-355 -147 0
-355 156 0
355 -128 35 39 147 -156 0
351 352 353 354 355 0
-356 142 0
-356 73 0
-356 -78 0
-356 -39 0
-356 144 0
356 -142 -73 78 39 -144 0
-357 -47 0
-357 96 0
-357 148 0
-357 119 0
-357 -18 0
357 47 -96 -148 -119 18 0
-358 -56 0
-358 -84 0
-358 -173 0
-358 -102 0
-358 106 0
358 56 84 173 102 -106 0
-359 89 0
-359 -100 0
-359 -163 0
-359 -39 0
-359 104 0
359 -89 100 163 39 -104 0
-360 -184 0
-360 83 0
-360 126 0
-360 11 0
-360 39 0
360 184 -83 -126 -11 -39 0
356 357 358 359 360 0
-361 -158 0
-361 131 0
-361 166 0
-361 -132 0
-361 -182 0
361 158 -131 -166 132 182 0
-362 -131 0
-362 77 0
-362 139 0
-362 -105 0
-362 168 0
362 131 -77 -139 105 -168 0
-363 -184 0
-363 -113 0
-363 151 0
-363 9 0
-363 146 0
363 184 113 -151 -9 -146 0
-364 86 0
-364 5 0
-364 -41 0
-364 -55 0
-364 8 0
364 -86 -5 41 55 -8 0
-365 133 0
-365 -141 0
-365 -129 0
-365 67 0
-365 91 0
365 -133 141 129 -67 -91 0
361 362 363 364 365 0
-366 -133 0
-366 -103 0
-366 -22 0
-366 121 0
-366 31 0
366 133 103 22 -121 -31 0
-367 124 0
-367 94 0
-367 -22 0
-367 -103 0
-367 80 0
367 -124 -94 22 103 -80 0
-368 180 0
-368 177 0
-368 -169 0
-368 -162 0
-368 63 0
368 -180 -177 169 162 -63 0
-369 -97 0
-369 -106 0
-369 170 0
-369 45 0
-369 18 0
369 97 106 -170 -45 -18 0
-370 -26 0
-370 -36 0
-370 -47 0
-370 -170 0
-370 61 0
370 26 36 47 170 -61 0
366 367 368 369 370 0
-371 58 0
-371 -126 0
-371 -102 0
-371 -136 0
-371 145 0
371 -58 126 102 136 -145 0
-372 89 0
-372 180 0
-372 -62 0
-372 53 0
-372 157 0
372 -89 -180 62 -53 -157 0
-373 -12 0
-373 -154 0
-373 -1 0
-373 184 0
-373 29 0
373 12 154 1 -184 -29 0
-374 -109 0
-374 13 0
-374 167 0
-374 48 0
-374 183 0
374 109 -13 -167 -48 -183 0
-375 -145 0
-375 29 0
-375 -48 0
-375 -126 0
-375 -130 0
375 145 -29 48 126 130 0
371 372 373 374 375 0
-376 74 0
-376 -56 0
-376 111 0
-376 -165 0
-376 -133 0
376 -74 56 -111 165 133 0
-377 186 0
-377 153 0
-377 132 0
-377 -68 0
-377 41 0
377 -186 -153 -132 68 -41 0
-378 17 0
-378 117 0
-378 160 0
-378 -42 0
-378 75 0
378 -17 -117 -160 42 -75 0
-379 -98 0
-379 -7 0
-379 2 0
-379 188 0
-379 -119 0
379 98 7 -2 -188 119 0
-380 -146 0
-380 161 0
-380 -121 0
-380 -46 0
-380 165 0
380 146 -161 121 46 -165 0
376 377 378 379 380 0
-381 56 0
-381 -176 0
-381 -116 0
-381 141 0
-381 -143 0
381 -56 176 116 -141 143 0
-382 105 0
-382 -37 0
-382 167 0
-382 181 0
-382 -14 0
382 -105 37 -167 -181 14 0
-383 172 0
-383 -58 0
-383 -142 0
-383 -13 0
-383 7 0
383 -172 58 142 13 -7 0
-384 159 0
-384 178 0
-384 80 0
-384 77 0
-384 -138 0
384 -159 -178 -80 -77 138 0
-385 -190 0
-385 81 0
-385 152 0
-385 -155 0
-385 -92 0
385 190 -81 -152 155 92 0
381 382 383 384 385 0
-386 25 0
-386 -64 0
-386 -109 0
-386 38 0
-386 -140 0
386 -25 64 109 -38 140 0
-387 67 0
-387 188 0
-387 151 0
-387 -134 0
-387 177 0
387 -67 -188 -151 134 -177 0
-388 -77 0
-388 75 0
-388 97 0
-388 182 0
-388 -138 0
388 77 -75 -97 -182 138 0
-389 81 0
-389 29 0
-389 33 0
-389 100 0
-389 -183 0
389 -81 -29 -33 -100 183 0
-390 54 0
-390 37 0
-390 68 0
-390 -7 0
-390 -80 0
390 -54 -37 -68 7 80 0
386 387 388 389 390 0
-391 -185 0
-391 -95 0
-391 170 0
-391 -118 0
-391 -36 0
391 185 95 -170 118 36 0
-392 -186 0
-392 180 0
-392 -143 0
-392 158 0
-392 61 0
392 186 -180 143 -158 -61 0
-393 -78 0
-393 -49 0
-393 -88 0
-393 171 0
-393 145 0
393 78 49 88 -171 -145 0
-394 -77 0
-394 -48 0
-394 158 0
-394 -139 0
-394 59 0
394 77 48 -158 139 -59 0
-395 23 0
-395 6 0
-395 53 0
-395 -155 0
-395 153 0
395 -23 -6 -53 155 -153 0
391 392 393 394 395 0
-396 -12 0
-396 -183 0
-396 -118 0
-396 -20 0
-396 17 0
396 12 183 118 20 -17 0
-397 143 0
-397 -28 0
-397 -146 0
-397 -180 0
-397 57 0
397 -143 28 146 180 -57 0
-398 151 0
-398 171 0
-398 60 0
-398 -94 0
-398 -116 0
398 -151 -171 -60 94 116 0
-399 129 0
-399 57 0
-399 152 0
-399 -31 0
-399 81 0
399 -129 -57 -152 31 -81 0
-400 176 0
-400 -123 0
-400 177 0
-400 36 0
-400 -20 0
400 -176 123 -177 -36 20 0
396 397 398 399 400 0
-401 -47 0
-401 170 0
-401 -115 0
-401 -2 0
-401 -125 0
401 47 -170 115 2 125 0
-402 98 0
-402 89 0
-402 126 0
-402 12 0
-402 74 0
402 -98 -89 -126 -12 -74 0
-403 -101 0
-403 -100 0
-403 38 0
-403 -33 0
-403 -115 0
403 101 100 -38 33 115 0
-404 -104 0
-404 123 0
-404 190 0
-404 -163 0
-404 89 0
404 104 -123 -190 163 -89 0
-405 165 0
-405 -187 0
-405 5 0
-405 138 0
-405 49 0
405 -165 187 -5 -138 -49 0
401 402 403 404 405 0
-406 -76 0
-406 173 0
-406 -10 0
-406 153 0
-406 -112 0
406 76 -173 10 -153 112 0
-407 -10 0
-407 90 0
-407 24 0
-407 -19 0
-407 -51 0
407 10 -90 -24 19 51 0
-408 -70 0
-408 171 0
-408 68 0
-408 -53 0
-408 -57 0
408 70 -171 -68 53 57 0
-409 -117 0
-409 77 0
-409 -25 0
-409 -158 0
-409 -123 0
409 117 -77 25 158 123 0
-410 -107 0
-410 -98 0
-410 -149 0
-410 37 0
-410 125 0
410 107 98 149 -37 -125 0
406 407 408 409 410 0
-411 113 0
-411 163 0
-411 91 0
-411 -4 0
-411 -137 0
411 -113 -163 -91 4 137 0
-412 -121 0
-412 -49 0
-412 161 0
-412 115 0
-412 -96 0
412 121 49 -161 -115 96 0
-413 180 0
-413 133 0
-413 58 0
-413 -51 0
-413 -127 0
413 -180 -133 -58 51 127 0
-414 -132 0
-414 151 0
-414 -56 0
-414 -155 0
-414 -115 0
414 132 -151 56 155 115 0
-415 170 0
-415 114 0
-415 -125 0
-415 33 0
-415 79 0
415 -170 -114 125 -33 -79 0
411 412 413 414 415 0
-416 -32 0
-416 62 0
-416 11 0
-416 -53 0
-416 180 0
416 32 -62 -11 53 -180 0
-417 -183 0
-417 -185 0
-417 -87 0
-417 8 0
-417 -137 0
417 183 185 87 -8 137 0
-418 175 0
-418 -174 0
-418 -132 0
-418 16 0
-418 -62 0
418 -175 174 132 -16 62 0
-419 130 0
-419 -139 0
-419 -106 0
-419 -35 0
-419 159 0
419 -130 139 106 35 -159 0
-420 186 0
-420 90 0
-420 50 0
-420 111 0
-420 -95 0
420 -186 -90 -50 -111 95 0
416 417 418 419 420 0
-421 -184 0
-421 -60 0
-421 56 0
-421 145 0
-421 23 0
421 184 60 -56 -145 -23 0
-422 -41 0
-422 130 0
-422 73 0
-422 140 0
-422 -168 0
422 41 -130 -73 -140 168 0
-423 -3 0
-423 -86 0
-423 -22 0
-423 -183 0
-423 188 0
423 3 86 22 183 -188 0
-424 -175 0
-424 145 0
-424 4 0
-424 69 0
-424 -172 0
424 175 -145 -4 -69 172 0
-425 175 0
-425 -182 0
-425 13 0
-425 42 0
-425 147 0
425 -175 182 -13 -42 -147 0
421 422 423 424 425 0
-426 136 0
-426 -173 0
-426 129 0
-426 22 0
-426 20 0
426 -136 173 -129 -22 -20 0
-427 -34 0
-427 -109 0
-427 -128 0
-427 6 0
-427 155 0
427 34 109 128 -6 -155 0
-428 -78 0
-428 -84 0
-428 85 0
-428 -18 0
-428 -183 0
428 78 84 -85 18 183 0
-429 -50 0
-429 177 0
-429 -148 0
-429 170 0
-429 156 0
429 50 -177 148 -170 -156 0
-430 102 0
-430 145 0
-430 68 0
-430 186 0
-430 -140 0
430 -102 -145 -68 -186 140 0
426 427 428 429 430 0
